Food = {Red cabbage,Celery,Eggplant,Zucchini,Chili,Onion};
fibre = [3.83,1.60,3.00,1.00,1.50,1.70];
sugar = [2.63,1.34,3.53,2.50,5.30,4.24];
cost = [1.74,0.50,0.50,0.75,6.13,0.35];
satfat = [2.10,0.69,0.03,0.08,0.04,0.04];
protein = [1.43,0.50,0.98,1.21,1.87,1.10];
